letting n_nurses=25
letting n_days=7
letting n_shift_types=4
letting max_covers=4
letting t_covers=35
letting covers=[0,3,3,0,3,0,1,0,0,1,2,0,1,1,0,0,3,4,0,0,4,2,0,0,3,0,4,0]
letting prefes=[1,2,2,2,2,3,2,2,4,2,2,4,1,2,2,2,1,2,2,2,1,2,2,2,1,2,2,2,2,1,2,1,2,3,2,2,1,2,2,1,2,1,2,4,2,1,2,1,2,1,2,4,2,1,2,1,1,1,2,1,2,1,2,2,1,2,2,1,1,2,2,2,1,1,2,1,1,2,2,2,1,1,2,1,1,1,2,1,2,3,2,2,1,2,2,1,1,2,2,2,1,1,2,1,1,2,2,2,1,1,2,1,1,2,2,2,2,1,2,2,1,2,2,1,1,2,2,2,1,2,2,2,1,2,2,2,1,2,2,2,1,2,2,2,2,1,2,2,1,2,2,1,2,1,2,2,1,2,2,2,2,1,2,2,1,2,2,2,1,1,2,1,2,1,2,2,1,2,2,1,1,2,2,2,1,1,2,1,1,2,2,2,1,1,2,1,2,1,2,1,2,1,2,2,1,2,2,1,2,2,1,2,2,1,2,1,2,2,1,2,2,1,2,1,1,1,1,1,2,1,2,2,4,2,2,4,2,2,2,2,1,1,1,1,2,2,2,2,1,1,1,1,1,1,2,1,2,1,2,2,1,2,2,1,2,2,2,2,1,1,2,1,2,2,2,2,1,1,2,1,1,1,2,1,1,1,1,1,1,1,1,1,2,2,1,2,1,1,2,1,2,2,1,2,1,1,2,1,2,2,2,2,1,1,1,1,4,1,1,4,2,2,1,4,2,2,2,2,2,2,1,4,2,2,2,2,1,1,2,1,1,1,1,1,1,1,1,1,2,1,1,4,1,1,2,1,2,1,1,4,1,1,2,1,1,1,2,1,2,1,2,2,1,2,2,1,2,2,2,2,1,1,2,1,2,2,2,2,1,1,2,1,2,1,2,1,2,1,2,2,1,2,2,1,2,2,2,4,2,1,2,1,2,2,2,4,2,1,2,1,1,1,1,1,2,1,2,2,4,2,2,4,2,2,2,4,1,1,1,1,2,2,2,4,1,1,1,1,1,1,2,1,1,1,1,1,1,1,1,1,2,2,2,2,1,1,2,1,2,2,2,2,1,1,2,1,1,1,2,1,2,1,2,2,1,2,2,1,2,2,1,2,1,1,2,1,2,2,1,2,1,1,2,1,1,2,2,2,2,3,2,2,1,2,2,1,2,2,2,2,1,2,2,2,2,2,2,2,1,2,2,2,1,1,2,1,2,1,2,2,1,2,2,1,2,2,2,2,1,1,2,1,2,2,2,2,1,1,2,1,2,1,2,1,2,1,2,2,1,2,2,1,2,2,2,2,2,1,2,1,2,2,2,2,2,1,2,1,1,1,2,1,2,1,2,2,1,2,2,1,2,1,2,2,1,1,2,1,2,1,2,2,1,1,2,1,1,1,1,1,2,3,2,2,1,2,2,1,2,2,2,2,1,1,1,1,2,2,2,2,1,1,1,1,1,1,1,1,1,1,1,1,1,1,1,1,2,2,2,2,1,1,1,1,2,2,2,2,1,1,1,1,1,1,1,1,2,1,2,2,4,2,2,4,2,1,2,2,1,1,1,1,2,1,2,2,1,1,1,1]
letting ub =  212
